(set-option :produce-models true); benchmark generated from python API
(set-info :status unknown)
(declare-fun l_1_0_7 () Real)
(declare-fun l_1_0_6 () Real)
(declare-fun l_1_0_5 () Real)
(declare-fun l_1_0_2 () Real)
(declare-fun l_1_0_14 () Real)
(declare-fun l_1_0_13 () Real)
(declare-fun l_1_0_12 () Real)
(declare-fun _a_0_ () Real)
(declare-fun l_1_0_9 () Real)
(declare-fun l_1_0_8 () Real)
(declare-fun l_1_0_4 () Real)
(declare-fun l_1_0_3 () Real)
(declare-fun l_1_0_1 () Real)
(declare-fun _a_1_ () Real)
(declare-fun _a_2_ () Real)
(declare-fun l_1_0_11 () Real)
(declare-fun l_1_0_10 () Real)
(declare-fun _a_3_ () Real)
(declare-fun _a_4_ () Real)
(declare-fun _a_5_ () Real)
(declare-fun l_1_1_9 () Real)
(declare-fun l_1_1_8 () Real)
(declare-fun l_1_1_7 () Real)
(declare-fun l_1_1_6 () Real)
(declare-fun l_1_1_4 () Real)
(declare-fun l_1_1_3 () Real)
(declare-fun l_1_1_15 () Real)
(declare-fun l_1_1_14 () Real)
(declare-fun l_1_1_13 () Real)
(declare-fun l_1_1_1 () Real)
(declare-fun l_1_1_5 () Real)
(declare-fun l_1_1_2 () Real)
(declare-fun l_1_1_12 () Real)
(declare-fun l_1_1_11 () Real)
(declare-fun l_1_1_10 () Real)
(declare-fun l_1_1_17 () Real)
(declare-fun l_1_1_16 () Real)
(declare-fun l_1_1_20 () Real)
(declare-fun l_1_1_19 () Real)
(declare-fun l_1_1_18 () Real)
(declare-fun l_1_2_20 () Real)
(declare-fun l_1_2_19 () Real)
(declare-fun l_1_2_18 () Real)
(declare-fun l_1_2_12 () Real)
(declare-fun l_1_2_8 () Real)
(declare-fun l_1_2_6 () Real)
(declare-fun l_1_2_5 () Real)
(declare-fun l_1_2_4 () Real)
(declare-fun l_1_2_3 () Real)
(declare-fun l_1_2_17 () Real)
(declare-fun l_1_2_16 () Real)
(declare-fun l_1_2_15 () Real)
(declare-fun l_1_2_9 () Real)
(declare-fun l_1_2_7 () Real)
(declare-fun l_1_2_2 () Real)
(declare-fun l_1_2_14 () Real)
(declare-fun l_1_2_13 () Real)
(declare-fun l_1_2_11 () Real)
(declare-fun l_1_2_10 () Real)
(declare-fun l_1_2_1 () Real)
(assert
 (let ((?x52 (* 4.0 l_1_0_2)))
 (let ((?x53 (* l_1_0_14 l_1_0_14)))
 (let ((?x1780 (- (- (- _a_0_ (* l_1_0_12 l_1_0_12)) (* l_1_0_13 l_1_0_13)) ?x53)))
 (= (+ (+ (+ (- ?x1780 ?x52) l_1_0_5) l_1_0_6) l_1_0_7) 0.0)))))
(assert
 (let ((?x1719 (* l_1_0_9 l_1_0_9)))
 (let ((?x1720 (- (- (- (- (- _a_1_ l_1_0_1) l_1_0_3) l_1_0_4) l_1_0_8) ?x1719)))
 (= ?x1720 0.0))))
(assert
 (let ((?x1682 (* 2.0 l_1_0_7)))
 (let ((?x1692 (* 2.0 l_1_0_6)))
 (let ((?x1690 (* 2.0 l_1_0_5)))
 (let ((?x1683 (- (- (- (- _a_2_ (* (* 2.0 l_1_0_12) l_1_0_9)) ?x1690) ?x1692) ?x1682)))
 (= ?x1683 0.0))))))
(assert
 (let ((?x1615 (+ (- (- _a_3_ (* l_1_0_10 l_1_0_10)) (* l_1_0_11 l_1_0_11)) l_1_0_5)))
 (= (+ (+ ?x1615 l_1_0_6) l_1_0_7) 0.0)))
(assert
 (= (- _a_4_ (* (* 2.0 l_1_0_10) l_1_0_9)) 0.0))
(assert
 (let ((?x1579 (- (- _a_5_ (* (* 2.0 l_1_0_10) l_1_0_12)) (* (* 2.0 l_1_0_11) l_1_0_13))))
 (= ?x1579 0.0)))
(assert
 (= (- l_1_0_2) 0.0))
(assert
 (= (* (- 2.0) l_1_0_2) 0.0))
(assert
 (let ((?x52 (* 4.0 l_1_0_2)))
 (= ?x52 0.0)))
(assert
 (= (- l_1_0_2) 0.0))
(assert
 (let ((?x52 (* 4.0 l_1_0_2)))
 (= ?x52 0.0)))
(assert
 (>= l_1_0_1 0.0))
(assert
 (>= l_1_0_2 0.0))
(assert
 (>= l_1_0_3 0.0))
(assert
 (>= l_1_0_4 0.0))
(assert
 (>= l_1_0_5 0.0))
(assert
 (>= l_1_0_6 0.0))
(assert
 (>= l_1_0_7 0.0))
(assert
 (>= l_1_0_8 0.0))
(assert
 (>= l_1_0_9 0.0))
(assert
 (>= l_1_0_11 0.0))
(assert
 (>= l_1_0_14 0.0))
(assert
 (let ((?x1488 (* l_1_1_15 l_1_1_15)))
 (let ((?x1483 (* _a_1_ l_1_1_5)))
 (let ((?x1481 (* _a_1_ l_1_1_2)))
 (let ((?x1480 (+ (- (* (* 1.0 _a_1_) l_1_1_10) (* _a_1_ l_1_1_11)) (* (* 1.0 _a_1_) l_1_1_12))))
 (let ((?x1489 (- (- (- (- (- (- ?x1480 ?x1481) ?x1483) l_1_1_1) l_1_1_13) l_1_1_14) ?x1488)))
 (let ((?x852 (- (+ (- ?x1489 l_1_1_3) (* 1.0 l_1_1_4)) (* (* l_1_1_6 _a_1_) _a_1_))))
 (let ((?x1442 (+ (+ (- ?x852 (* 1.0 l_1_1_7)) (* 1.0 l_1_1_8)) (* 1.0 l_1_1_9))))
 (= (+ ?x1442 3.0) 0.0)))))))))
(assert
 (let ((?x1231 (* l_1_1_17 l_1_1_17)))
 (let ((?x1227 (* l_1_1_16 l_1_1_16)))
 (let ((?x1301 (* _a_3_ l_1_1_5)))
 (let ((?x1299 (* _a_3_ l_1_1_2)))
 (let ((?x1298 (+ (- (* (* 1.0 _a_3_) l_1_1_10) (* _a_3_ l_1_1_11)) (* (* 1.0 _a_3_) l_1_1_12))))
 (let ((?x1237 (- (- (- (- (- ?x1298 ?x1299) ?x1301) ?x1227) ?x1231) (* l_1_1_6 (+ (* (* 2.0 _a_1_) _a_3_) (* _a_4_ _a_4_))))))
 (= (- ?x1237 1.0) 0.0))))))))
(assert
 (let ((?x373 (* l_1_1_20 l_1_1_20)))
 (let ((?x947 (* l_1_1_19 l_1_1_19)))
 (let ((?x940 (* l_1_1_18 l_1_1_18)))
 (let ((?x1085 (* _a_0_ l_1_1_5)))
 (let ((?x1083 (* _a_0_ l_1_1_2)))
 (let ((?x1082 (+ (- (* (* 1.0 _a_0_) l_1_1_10) (* _a_0_ l_1_1_11)) (* (* 1.0 _a_0_) l_1_1_12))))
 (let ((?x954 (- (- (- (- (- (- ?x1082 ?x1083) ?x1085) ?x940) ?x947) ?x373) (* l_1_1_6 (+ (* (* 2.0 _a_0_) _a_1_) (* _a_2_ _a_2_))))))
 (= (- ?x954 1.0) 0.0)))))))))
(assert
 (let ((?x885 (* _a_2_ l_1_1_5)))
 (let ((?x883 (* _a_2_ l_1_1_2)))
 (let ((?x879 (* _a_2_ l_1_1_11)))
 (let ((?x878 (+ (* (* (* (- 2.0) _a_1_) _a_2_) l_1_1_6) (* (* 1.0 _a_2_) l_1_1_10))))
 (let ((?x886 (- (- (+ (- ?x878 ?x879) (* (* 1.0 _a_2_) l_1_1_12)) ?x883) ?x885)))
 (= (+ (- ?x886 (* (* 2.0 l_1_1_15) l_1_1_18)) 2.0) 0.0)))))))
(assert
 (let ((?x784 (* _a_4_ l_1_1_5)))
 (let ((?x782 (* _a_4_ l_1_1_2)))
 (let ((?x804 (* _a_4_ l_1_1_11)))
 (let ((?x803 (+ (* (* (* (- 2.0) _a_1_) _a_4_) l_1_1_6) (* (* 1.0 _a_4_) l_1_1_10))))
 (let ((?x730 (- (- (+ (- ?x803 ?x804) (* (* 1.0 _a_4_) l_1_1_12)) ?x782) ?x784)))
 (= (- ?x730 (* (* 2.0 l_1_1_15) l_1_1_16)) 0.0)))))))
(assert
 (let ((?x640 (+ (* (* 2.0 _a_1_) _a_5_) (* (* 2.0 _a_2_) _a_4_))))
 (let ((?x680 (* _a_5_ l_1_1_5)))
 (let ((?x679 (* _a_5_ l_1_1_2)))
 (let ((?x36 (+ (- (* (* 1.0 _a_5_) l_1_1_10) (* _a_5_ l_1_1_11)) (* (* 1.0 _a_5_) l_1_1_12))))
 (let ((?x431 (- (- (- (- ?x36 ?x679) ?x680) (* (* 2.0 l_1_1_16) l_1_1_18)) (* (* 2.0 l_1_1_17) l_1_1_19))))
 (= (- ?x431 (* l_1_1_6 ?x640)) 0.0)))))))
(assert
 (= (* (* (- l_1_1_6) _a_0_) _a_0_) 0.0))
(assert
 (= (* (* (* (- 2.0) _a_0_) _a_2_) l_1_1_6) 0.0))
(assert
 (let ((?x390 (* _a_5_ _a_5_)))
 (let ((?x393 (+ (* (* 2.0 _a_0_) _a_3_) ?x390)))
 (let ((?x378 (- l_1_1_6)))
 (= (* ?x378 ?x393) 0.0)))))
(assert
 (let ((?x329 (+ (* (* 2.0 _a_0_) _a_4_) (* (* 2.0 _a_2_) _a_5_))))
 (let ((?x378 (- l_1_1_6)))
 (= (* ?x378 ?x329) 0.0))))
(assert
 (= (* (* (* (- 2.0) _a_0_) _a_5_) l_1_1_6) 0.0))
(assert
 (let ((?x13 (+ (* (* 2.0 _a_2_) _a_3_) (* (* 2.0 _a_4_) _a_5_))))
 (let ((?x378 (- l_1_1_6)))
 (= (* ?x378 ?x13) 0.0))))
(assert
 (= (* (* (- l_1_1_6) _a_3_) _a_3_) 0.0))
(assert
 (= (* (* (* (- 2.0) _a_3_) _a_4_) l_1_1_6) 0.0))
(assert
 (= (* (* (* (- 2.0) _a_3_) _a_5_) l_1_1_6) 0.0))
(assert
 (>= l_1_1_1 0.0))
(assert
 (>= l_1_1_2 0.0))
(assert
 (>= l_1_1_3 0.0))
(assert
 (>= l_1_1_4 0.0))
(assert
 (>= l_1_1_5 0.0))
(assert
 (>= l_1_1_6 0.0))
(assert
 (>= l_1_1_7 0.0))
(assert
 (>= l_1_1_8 0.0))
(assert
 (>= l_1_1_9 0.0))
(assert
 (>= l_1_1_10 0.0))
(assert
 (>= l_1_1_11 0.0))
(assert
 (>= l_1_1_12 0.0))
(assert
 (>= l_1_1_13 0.0))
(assert
 (>= l_1_1_14 0.0))
(assert
 (>= l_1_1_15 0.0))
(assert
 (>= l_1_1_17 0.0))
(assert
 (>= l_1_1_20 0.0))
(assert
 (let ((?x119 (* l_1_2_20 l_1_2_20)))
 (let ((?x142 (* l_1_2_19 l_1_2_19)))
 (let ((?x140 (* l_1_2_18 l_1_2_18)))
 (let ((?x63 (* (/ 50884213212401.0 5000000000000000.0) _a_5_)))
 (let ((?x151 (* (/ 253.0 1000000.0) _a_4_)))
 (let ((?x167 (* (/ 27162921.0 250000000000.0) _a_3_)))
 (let ((?x21 (* (/ 1287517.0 250000000000.0) _a_2_)))
 (let ((?x18 (* (/ 12497347111777.0 12500000000000.0) _a_0_)))
 (let ((?x162 (* _a_0_ l_1_2_8)))
 (let ((?x60 (* _a_0_ l_1_2_6)))
 (let ((?x189 (- (- (* (- _a_0_) l_1_2_3) (* (* 1.0 _a_0_) l_1_2_4)) (* (* 1.0 _a_0_) l_1_2_5))))
 (let ((?x137 (- (+ (+ (+ (+ (- (- ?x189 ?x60) ?x162) ?x18) ?x21) ?x167) ?x151) ?x63)))
 (let ((?x139 (- ?x137 (* l_1_2_12 (+ (* (* 2.0 _a_0_) _a_1_) (* _a_2_ _a_2_))))))
 (= (- (- (- ?x139 ?x140) ?x142) ?x119) 0.0)))))))))))))))
(assert
 (let ((?x640 (+ (* (* 2.0 _a_1_) _a_5_) (* (* 2.0 _a_2_) _a_4_))))
 (let ((?x1024 (* (/ 12497251686731.0 12500000000000.0) _a_5_)))
 (let ((?x1009 (* _a_5_ l_1_2_8)))
 (let ((?x1000 (* _a_5_ l_1_2_6)))
 (let ((?x245 (* _a_5_ l_1_2_3)))
 (let ((?x904 (* (/ 18721.0 1000000.0) _a_4_)))
 (let ((?x219 (- (- (- (* (/ 207280909786429.0 10000000000000000.0) _a_0_) (* (/ 158521169.0 250000000000.0) _a_2_)) (* (/ 1036521.0 50000000.0) _a_3_)) ?x904)))
 (let ((?x991 (- (- (- ?x219 ?x245) (* (* 1.0 _a_5_) l_1_2_4)) (* (* 1.0 _a_5_) l_1_2_5))))
 (let ((?x199 (- (- (+ (- (- ?x991 ?x1000) ?x1009) ?x1024) (* l_1_2_12 ?x640)) (* (* 2.0 l_1_2_16) l_1_2_18))))
 (= (- ?x199 (* (* 2.0 l_1_2_17) l_1_2_19)) 0.0)))))))))))
(assert
 (let ((?x13 (+ (* (* 2.0 _a_2_) _a_3_) (* (* 2.0 _a_4_) _a_5_))))
 (let ((?x1090 (* (/ 51108943441.0 50000000000000.0) _a_5_)))
 (let ((?x1095 (- (- (- (* (/ 93562026018491.0 2500000000000000.0) _a_0_) (* (/ 350475841.0 1000000000000.0) _a_2_)) (* (/ 18721.0 500000.0) _a_3_)) ?x1090)))
 (= (- ?x1095 (* l_1_2_12 ?x13)) 0.0)))))
(assert
 (let ((?x329 (+ (* (* 2.0 _a_0_) _a_4_) (* (* 2.0 _a_2_) _a_5_))))
 (let ((?x1732 (* (/ 37409384775463.0 2000000000000000.0) _a_5_)))
 (let ((?x1733 (- (+ (+ (* (- (/ 31698152009291.0 25000000000000000.0)) _a_0_) (* (/ 4736413.0 500000000000.0) _a_2_)) (* (/ 221771169.0 250000000000.0) _a_3_)) ?x1732)))
 (= (- ?x1733 (* l_1_2_12 ?x329)) 0.0)))))
(assert
 (let ((?x1632 (* (/ 124973785829.0 12500000000000.0) _a_5_)))
 (let ((?x1629 (* (/ 5089.0 500000.0) _a_4_)))
 (let ((?x1637 (* (/ 5089.0 25000000.0) _a_3_)))
 (let ((?x1138 (* (/ 249973469579.0 250000000000.0) _a_2_)))
 (let ((?x1113 (* _a_2_ l_1_2_8)))
 (let ((?x1523 (* _a_2_ l_1_2_6)))
 (let ((?x169 (* _a_2_ l_1_2_3)))
 (let ((?x241 (- (- (* (/ 40707679574001.0 200000000000000000.0) _a_0_) (* (* (* 2.0 _a_1_) _a_2_) l_1_2_12)) ?x169)))
 (let ((?x1524 (- (- ?x241 (* (* 1.0 _a_2_) l_1_2_4)) (* (* 1.0 _a_2_) l_1_2_5))))
 (let ((?x1012 (- (+ (- (- (+ (- (- ?x1524 ?x1523) ?x1113) ?x1138) ?x1637) ?x1629) ?x1632) (* (* 2.0 l_1_2_15) l_1_2_18))))
 (= ?x1012 0.0))))))))))))
(assert
 (let ((?x578 (* (/ 63230023432961.0 250000000000000000.0) _a_5_)))
 (let ((?x564 (* (/ 1287517.0 250000000000.0) _a_3_)))
 (let ((?x562 (* (/ 64009.0 1000000000000.0) _a_2_)))
 (let ((?x563 (- (+ (* (* (* (- 2.0) _a_0_) _a_2_) l_1_2_12) (* (/ 51495149512751.0 5000000000000000000.0) _a_0_)) ?x562)))
 (= (+ (- ?x563 ?x564) ?x578) 0.0))))))
(assert
 (let ((?x1364 (- (+ (+ (* (- (/ 700086027943143.0 1000000000000000000.0)) _a_0_) (* (/ 350475841.0 1000000000000.0) _a_3_)) (* (/ 14823540664547.0 500000000000000000.0) _a_5_)) (* l_1_2_12 (+ (* (* 2.0 _a_0_) _a_3_) (* _a_5_ _a_5_))))))
 (= ?x1364 0.0)))
(assert
 (let ((?x993 (* (/ 104315317271.0 250000000000000000.0) _a_5_)))
 (let ((?x1608 (* (/ 4736413.0 500000000000.0) _a_3_)))
 (let ((?x1609 (- (+ (* (* (* (- 2.0) _a_0_) _a_5_) l_1_2_12) (* (/ 47339458409133.0 2500000000000000000.0) _a_0_)) ?x1608)))
 (= (- ?x1609 ?x993) 0.0)))))
(assert
 (let ((?x1428 (- (+ (+ (* (- (/ 127977891313853.0 1000000000000000000000.0)) _a_0_) (* (/ 64009.0 1000000000000.0) _a_3_)) (* (/ 977225403.0 500000000000000000.0) _a_5_)) (* (* l_1_2_12 _a_0_) _a_0_))))
 (= ?x1428 0.0)))
(assert
 (let ((?x1499 (* l_1_2_17 l_1_2_17)))
 (let ((?x1497 (* l_1_2_16 l_1_2_16)))
 (let ((?x1545 (* (/ 527621.0 50000000.0) _a_5_)))
 (let ((?x759 (* _a_3_ l_1_2_8)))
 (let ((?x758 (* _a_3_ l_1_2_6)))
 (let ((?x550 (- (- (+ (* (/ 1112484251041.0 10000000000000000.0) _a_0_) (* (/ 18721.0 1000000.0) _a_2_)) (* _a_3_ l_1_2_3)) (* (* 1.0 _a_3_) l_1_2_4))))
 (let ((?x929 (+ (- (- (- ?x550 (* (* 1.0 _a_3_) l_1_2_5)) ?x758) ?x759) _a_3_)))
 (let ((?x1503 (- (+ ?x929 ?x1545) (* l_1_2_12 (+ (* (* 2.0 _a_1_) _a_3_) (* _a_4_ _a_4_))))))
 (= (- (- ?x1503 ?x1497) ?x1499) 0.0))))))))))
(assert
 (let ((?x791 (* (/ 18721.0 1000000.0) _a_5_)))
 (let ((?x796 (+ (- (* (/ 19404709641.0 50000000000000.0) _a_0_) (* (* (* 2.0 _a_3_) _a_4_) l_1_2_12)) ?x791)))
 (= ?x796 0.0))))
(assert
 (let ((?x1377 (* (/ 2054321.0 10000000000.0) _a_5_)))
 (let ((?x1555 (* _a_4_ l_1_2_8)))
 (let ((?x1353 (* _a_4_ l_1_2_6)))
 (let ((?x1366 (* _a_4_ l_1_2_3)))
 (let ((?x1372 (* (/ 1.0 50.0) _a_3_)))
 (let ((?x1368 (* (/ 1036521.0 100000000.0) _a_2_)))
 (let ((?x1369 (+ (- (* (/ 5274855369.0 2500000000000000.0) _a_0_) (* (* (* 2.0 _a_1_) _a_4_) l_1_2_12)) ?x1368)))
 (let ((?x1352 (- (- (- (+ ?x1369 ?x1372) ?x1366) (* (* 1.0 _a_4_) l_1_2_4)) (* (* 1.0 _a_4_) l_1_2_5))))
 (let ((?x1378 (- (+ (+ (- (- ?x1352 ?x1353) ?x1555) _a_4_) ?x1377) (* (* 2.0 l_1_2_15) l_1_2_16))))
 (= ?x1378 0.0)))))))))))
(assert
 (let ((?x181 (* (/ 350475841.0 500000000000.0) _a_5_)))
 (let ((?x185 (- (- (* (- (/ 38758637278219.0 1250000000000000000.0)) _a_0_) (* (* (* 2.0 _a_3_) _a_5_) l_1_2_12)) ?x181)))
 (= ?x185 0.0))))
(assert
 (= (- (* (/ 350475841.0 1000000000000.0) _a_0_) (* (* l_1_2_12 _a_3_) _a_3_)) 0.0))
(assert
 (= (* (- (/ 6561258219361.0 500000000000000000.0)) _a_0_) 0.0))
(assert
 (= (+ (* (/ 6393154170117.0 8000000000000000000.0) _a_0_) (* (/ 6561258219361.0 1000000000000000000.0) _a_5_)) 0.0))
(assert
 (= (- (* (- (/ 180197214150431.0 10000000000000000000000.0)) _a_0_) (* (/ 266011163319.0 1000000000000000000.0) _a_5_)) 0.0))
(assert
 (= (+ (* (/ 22343206019563.0 125000000000000000000000.0) _a_0_) (* (/ 3594937467.0 1000000000000000000.0) _a_5_)) 0.0))
(assert
 (let ((?x248 (* l_1_2_15 l_1_2_15)))
 (let ((?x613 (* (/ 5089.0 5000000000.0) _a_5_)))
 (let ((?x610 (* (/ 1.0 100.0) _a_4_)))
 (let ((?x633 (* (/ 1.0 10000.0) _a_3_)))
 (let ((?x630 (* (/ 5089.0 50000000.0) _a_2_)))
 (let ((?x1117 (* _a_1_ l_1_2_8)))
 (let ((?x1123 (* _a_1_ l_1_2_6)))
 (let ((?x1044 (- (- (* (/ 25897921.0 2500000000000000.0) _a_0_) (* _a_1_ l_1_2_3)) (* (* 1.0 _a_1_) l_1_2_4))))
 (let ((?x302 (+ (- (- (- ?x1044 (* (* 1.0 _a_1_) l_1_2_5)) ?x1123) ?x1117) _a_1_)))
 (let ((?x448 (- (- (+ (+ (+ (+ ?x302 ?x630) ?x633) ?x610) ?x613) l_1_2_1) (* 1.0 l_1_2_10))))
 (let ((?x251 (- (- (- ?x448 l_1_2_11) (* (* l_1_2_12 _a_1_) _a_1_)) l_1_2_13)))
 (let ((?x1383 (- (- (- (- ?x251 l_1_2_14) ?x248) (* 1.0 l_1_2_2)) (* 1.0 l_1_2_7))))
 (= (- ?x1383 (* 1.0 l_1_2_9)) 0.0))))))))))))))
(assert
 (= (- (* (- (/ 82412675653.0 125000000000000000000000.0)) _a_0_) (* (/ 16194277.0 1000000000000000000.0) _a_5_)) 0.0))
(assert
 (= (* (/ 122833315124657.0 1000000000000000000000.0) _a_0_) 0.0))
(assert
 (= (* (- (/ 663999331799333.0 100000000000000000000000.0)) _a_0_) 0.0))
(assert
 (= (* (/ 67300824319707.0 500000000000000000000000.0) _a_0_) 0.0))
(assert
 (= (* (- (/ 303173059717.0 250000000000000000000000.0)) _a_0_) 0.0))
(assert
 (= (* (/ 4097152081.0 1000000000000000000000000.0) _a_0_) 0.0))
(assert
 (>= l_1_2_1 0.0))
(assert
 (>= l_1_2_2 0.0))
(assert
 (>= l_1_2_3 0.0))
(assert
 (>= l_1_2_4 0.0))
(assert
 (>= l_1_2_5 0.0))
(assert
 (>= l_1_2_6 0.0))
(assert
 (>= l_1_2_7 0.0))
(assert
 (>= l_1_2_8 0.0))
(assert
 (>= l_1_2_9 0.0))
(assert
 (>= l_1_2_10 0.0))
(assert
 (>= l_1_2_11 0.0))
(assert
 (>= l_1_2_12 0.0))
(assert
 (>= l_1_2_13 0.0))
(assert
 (>= l_1_2_14 0.0))
(assert
 (>= l_1_2_15 0.0))
(assert
 (>= l_1_2_17 0.0))
(assert
 (>= l_1_2_20 0.0))
(check-sat)
(get-model)